<?xml version="1.0" encoding="UTF-8" standalone="no"?>
<instance xmlns:xsi="http://www.w3.org/2001/XMLSchema-instance" xsi:noNamespaceSchemaLocation="src/ch/epfl/lia/frodo/algorithms/XCSPschema.xsd">
<presentation format="XCSP 2.1_FRODO" maxConstraint="2" maximize="true" name="Rnd-25-2-25.xml"/>
<agents nbAgents="25">
<agent name="0"/>
<agent name="1"/>
<agent name="2"/>
<agent name="3"/>
<agent name="4"/>
<agent name="5"/>
<agent name="6"/>
<agent name="7"/>
<agent name="8"/>
<agent name="9"/>
<agent name="10"/>
<agent name="11"/>
<agent name="12"/>
<agent name="13"/>
<agent name="14"/>
<agent name="15"/>
<agent name="16"/>
<agent name="17"/>
<agent name="18"/>
<agent name="19"/>
<agent name="20"/>
<agent name="21"/>
<agent name="22"/>
<agent name="23"/>
<agent name="24"/>
</agents>
<domains nbDomains="1">
<domain name="D" nbValues="2">1..2</domain>
</domains>
<variables nbVariables="25">
<variable agent="0" domain="D" name="0"/>
<variable agent="1" domain="D" name="1"/>
<variable agent="2" domain="D" name="2"/>
<variable agent="3" domain="D" name="3"/>
<variable agent="4" domain="D" name="4"/>
<variable agent="5" domain="D" name="5"/>
<variable agent="6" domain="D" name="6"/>
<variable agent="7" domain="D" name="7"/>
<variable agent="8" domain="D" name="8"/>
<variable agent="9" domain="D" name="9"/>
<variable agent="10" domain="D" name="10"/>
<variable agent="11" domain="D" name="11"/>
<variable agent="12" domain="D" name="12"/>
<variable agent="13" domain="D" name="13"/>
<variable agent="14" domain="D" name="14"/>
<variable agent="15" domain="D" name="15"/>
<variable agent="16" domain="D" name="16"/>
<variable agent="17" domain="D" name="17"/>
<variable agent="18" domain="D" name="18"/>
<variable agent="19" domain="D" name="19"/>
<variable agent="20" domain="D" name="20"/>
<variable agent="21" domain="D" name="21"/>
<variable agent="22" domain="D" name="22"/>
<variable agent="23" domain="D" name="23"/>
<variable agent="24" domain="D" name="24"/>
</variables>
<relations nbRelations="120">
<relation name="r_1" arity="2" nbTuples="4" semantics="soft">36:1 1 |53:1 2 |18:2 1 |65:2 2 </relation>
<relation name="r_2" arity="2" nbTuples="4" semantics="soft">14:1 1 |81:1 2 |86:2 1 |2:2 2 </relation>
<relation name="r_3" arity="2" nbTuples="4" semantics="soft">80:1 1 |88:1 2 |74:2 1 |81:2 2 </relation>
<relation name="r_4" arity="2" nbTuples="4" semantics="soft">2:1 1 |42:1 2 |97:2 1 |74:2 2 </relation>
<relation name="r_5" arity="2" nbTuples="4" semantics="soft">68:1 1 |12:1 2 |75:2 1 |61:2 2 </relation>
<relation name="r_6" arity="2" nbTuples="4" semantics="soft">12:1 1 |32:1 2 |99:2 1 |69:2 2 </relation>
<relation name="r_7" arity="2" nbTuples="4" semantics="soft">35:1 1 |41:1 2 |14:2 1 |65:2 2 </relation>
<relation name="r_8" arity="2" nbTuples="4" semantics="soft">33:1 1 |38:1 2 |87:2 1 |20:2 2 </relation>
<relation name="r_9" arity="2" nbTuples="4" semantics="soft">73:1 1 |96:1 2 |79:2 1 |8:2 2 </relation>
<relation name="r_10" arity="2" nbTuples="4" semantics="soft">86:1 1 |33:1 2 |45:2 1 |37:2 2 </relation>
<relation name="r_11" arity="2" nbTuples="4" semantics="soft">3:1 1 |86:1 2 |46:2 1 |83:2 2 </relation>
<relation name="r_12" arity="2" nbTuples="4" semantics="soft">2:1 1 |74:1 2 |60:2 1 |94:2 2 </relation>
<relation name="r_13" arity="2" nbTuples="4" semantics="soft">82:1 1 |22:1 2 |53:2 1 |79:2 2 </relation>
<relation name="r_14" arity="2" nbTuples="4" semantics="soft">33:1 1 |95:1 2 |71:2 1 |29:2 2 </relation>
<relation name="r_15" arity="2" nbTuples="4" semantics="soft">15:1 1 |99:1 2 |8:2 1 |37:2 2 </relation>
<relation name="r_16" arity="2" nbTuples="4" semantics="soft">57:1 1 |48:1 2 |100:2 1 |55:2 2 </relation>
<relation name="r_17" arity="2" nbTuples="4" semantics="soft">93:1 1 |21:1 2 |98:2 1 |12:2 2 </relation>
<relation name="r_18" arity="2" nbTuples="4" semantics="soft">57:1 1 |54:1 2 |74:2 1 |46:2 2 </relation>
<relation name="r_19" arity="2" nbTuples="4" semantics="soft">13:1 1 |5:1 2 |18:2 1 |52:2 2 </relation>
<relation name="r_20" arity="2" nbTuples="4" semantics="soft">73:1 1 |77:1 2 |23:2 1 |6:2 2 </relation>
<relation name="r_21" arity="2" nbTuples="4" semantics="soft">29:1 1 |40:1 2 |8:2 1 |64:2 2 </relation>
<relation name="r_22" arity="2" nbTuples="4" semantics="soft">74:1 1 |27:1 2 |20:2 1 |29:2 2 </relation>
<relation name="r_23" arity="2" nbTuples="4" semantics="soft">45:1 1 |80:1 2 |3:2 1 |69:2 2 </relation>
<relation name="r_24" arity="2" nbTuples="4" semantics="soft">90:1 1 |42:1 2 |12:2 1 |49:2 2 </relation>
<relation name="r_25" arity="2" nbTuples="4" semantics="soft">73:1 1 |68:1 2 |17:2 1 |48:2 2 </relation>
<relation name="r_26" arity="2" nbTuples="4" semantics="soft">4:1 1 |40:1 2 |21:2 1 |96:2 2 </relation>
<relation name="r_27" arity="2" nbTuples="4" semantics="soft">70:1 1 |47:1 2 |98:2 1 |26:2 2 </relation>
<relation name="r_28" arity="2" nbTuples="4" semantics="soft">82:1 1 |6:1 2 |52:2 1 |30:2 2 </relation>
<relation name="r_29" arity="2" nbTuples="4" semantics="soft">65:1 1 |92:1 2 |65:2 1 |69:2 2 </relation>
<relation name="r_30" arity="2" nbTuples="4" semantics="soft">21:1 1 |67:1 2 |23:2 1 |12:2 2 </relation>
<relation name="r_31" arity="2" nbTuples="4" semantics="soft">32:1 1 |87:1 2 |73:2 1 |69:2 2 </relation>
<relation name="r_32" arity="2" nbTuples="4" semantics="soft">6:1 1 |88:1 2 |89:2 1 |34:2 2 </relation>
<relation name="r_33" arity="2" nbTuples="4" semantics="soft">64:1 1 |97:1 2 |97:2 1 |37:2 2 </relation>
<relation name="r_34" arity="2" nbTuples="4" semantics="soft">20:1 1 |51:1 2 |54:2 1 |25:2 2 </relation>
<relation name="r_35" arity="2" nbTuples="4" semantics="soft">50:1 1 |46:1 2 |22:2 1 |62:2 2 </relation>
<relation name="r_36" arity="2" nbTuples="4" semantics="soft">75:1 1 |38:1 2 |70:2 1 |84:2 2 </relation>
<relation name="r_37" arity="2" nbTuples="4" semantics="soft">74:1 1 |76:1 2 |63:2 1 |75:2 2 </relation>
<relation name="r_38" arity="2" nbTuples="4" semantics="soft">13:1 1 |26:1 2 |78:2 1 |37:2 2 </relation>
<relation name="r_39" arity="2" nbTuples="4" semantics="soft">74:1 1 |62:1 2 |83:2 1 |31:2 2 </relation>
<relation name="r_40" arity="2" nbTuples="4" semantics="soft">19:1 1 |36:1 2 |32:2 1 |90:2 2 </relation>
<relation name="r_41" arity="2" nbTuples="4" semantics="soft">45:1 1 |97:1 2 |61:2 1 |8:2 2 </relation>
<relation name="r_42" arity="2" nbTuples="4" semantics="soft">50:1 1 |26:1 2 |17:2 1 |44:2 2 </relation>
<relation name="r_43" arity="2" nbTuples="4" semantics="soft">55:1 1 |82:1 2 |29:2 1 |87:2 2 </relation>
<relation name="r_44" arity="2" nbTuples="4" semantics="soft">63:1 1 |4:1 2 |58:2 1 |92:2 2 </relation>
<relation name="r_45" arity="2" nbTuples="4" semantics="soft">24:1 1 |79:1 2 |89:2 1 |49:2 2 </relation>
<relation name="r_46" arity="2" nbTuples="4" semantics="soft">85:1 1 |4:1 2 |69:2 1 |2:2 2 </relation>
<relation name="r_47" arity="2" nbTuples="4" semantics="soft">82:1 1 |9:1 2 |77:2 1 |6:2 2 </relation>
<relation name="r_48" arity="2" nbTuples="4" semantics="soft">89:1 1 |52:1 2 |88:2 1 |65:2 2 </relation>
<relation name="r_49" arity="2" nbTuples="4" semantics="soft">94:1 1 |18:1 2 |31:2 1 |64:2 2 </relation>
<relation name="r_50" arity="2" nbTuples="4" semantics="soft">40:1 1 |19:1 2 |7:2 1 |69:2 2 </relation>
<relation name="r_51" arity="2" nbTuples="4" semantics="soft">39:1 1 |24:1 2 |75:2 1 |77:2 2 </relation>
<relation name="r_52" arity="2" nbTuples="4" semantics="soft">31:1 1 |24:1 2 |94:2 1 |13:2 2 </relation>
<relation name="r_53" arity="2" nbTuples="4" semantics="soft">56:1 1 |28:1 2 |47:2 1 |34:2 2 </relation>
<relation name="r_54" arity="2" nbTuples="4" semantics="soft">36:1 1 |48:1 2 |60:2 1 |75:2 2 </relation>
<relation name="r_55" arity="2" nbTuples="4" semantics="soft">20:1 1 |51:1 2 |6:2 1 |99:2 2 </relation>
<relation name="r_56" arity="2" nbTuples="4" semantics="soft">39:1 1 |78:1 2 |8:2 1 |20:2 2 </relation>
<relation name="r_57" arity="2" nbTuples="4" semantics="soft">93:1 1 |32:1 2 |11:2 1 |90:2 2 </relation>
<relation name="r_58" arity="2" nbTuples="4" semantics="soft">14:1 1 |63:1 2 |82:2 1 |67:2 2 </relation>
<relation name="r_59" arity="2" nbTuples="4" semantics="soft">68:1 1 |93:1 2 |64:2 1 |65:2 2 </relation>
<relation name="r_60" arity="2" nbTuples="4" semantics="soft">76:1 1 |79:1 2 |18:2 1 |2:2 2 </relation>
<relation name="r_61" arity="2" nbTuples="4" semantics="soft">95:1 1 |63:1 2 |42:2 1 |59:2 2 </relation>
<relation name="r_62" arity="2" nbTuples="4" semantics="soft">18:1 1 |27:1 2 |11:2 1 |71:2 2 </relation>
<relation name="r_63" arity="2" nbTuples="4" semantics="soft">75:1 1 |9:1 2 |64:2 1 |81:2 2 </relation>
<relation name="r_64" arity="2" nbTuples="4" semantics="soft">99:1 1 |12:1 2 |13:2 1 |2:2 2 </relation>
<relation name="r_65" arity="2" nbTuples="4" semantics="soft">49:1 1 |22:1 2 |87:2 1 |71:2 2 </relation>
<relation name="r_66" arity="2" nbTuples="4" semantics="soft">77:1 1 |61:1 2 |92:2 1 |41:2 2 </relation>
<relation name="r_67" arity="2" nbTuples="4" semantics="soft">100:1 1 |60:1 2 |7:2 1 |73:2 2 </relation>
<relation name="r_68" arity="2" nbTuples="4" semantics="soft">61:1 1 |8:1 2 |9:2 1 |94:2 2 </relation>
<relation name="r_69" arity="2" nbTuples="4" semantics="soft">91:1 1 |37:1 2 |99:2 1 |78:2 2 </relation>
<relation name="r_70" arity="2" nbTuples="4" semantics="soft">49:1 1 |29:1 2 |20:2 1 |28:2 2 </relation>
<relation name="r_71" arity="2" nbTuples="4" semantics="soft">55:1 1 |4:1 2 |72:2 1 |35:2 2 </relation>
<relation name="r_72" arity="2" nbTuples="4" semantics="soft">89:1 1 |10:1 2 |98:2 1 |37:2 2 </relation>
<relation name="r_73" arity="2" nbTuples="4" semantics="soft">42:1 1 |87:1 2 |59:2 1 |42:2 2 </relation>
<relation name="r_74" arity="2" nbTuples="4" semantics="soft">50:1 1 |93:1 2 |27:2 1 |24:2 2 </relation>
<relation name="r_75" arity="2" nbTuples="4" semantics="soft">96:1 1 |56:1 2 |98:2 1 |63:2 2 </relation>
<relation name="r_76" arity="2" nbTuples="4" semantics="soft">3:1 1 |25:1 2 |6:2 1 |17:2 2 </relation>
<relation name="r_77" arity="2" nbTuples="4" semantics="soft">79:1 1 |32:1 2 |2:2 1 |29:2 2 </relation>
<relation name="r_78" arity="2" nbTuples="4" semantics="soft">59:1 1 |89:1 2 |92:2 1 |32:2 2 </relation>
<relation name="r_79" arity="2" nbTuples="4" semantics="soft">2:1 1 |88:1 2 |61:2 1 |25:2 2 </relation>
<relation name="r_80" arity="2" nbTuples="4" semantics="soft">2:1 1 |28:1 2 |54:2 1 |57:2 2 </relation>
<relation name="r_81" arity="2" nbTuples="4" semantics="soft">9:1 1 |84:1 2 |83:2 1 |67:2 2 </relation>
<relation name="r_82" arity="2" nbTuples="4" semantics="soft">12:1 1 |64:1 2 |3:2 1 |13:2 2 </relation>
<relation name="r_83" arity="2" nbTuples="4" semantics="soft">42:1 1 |16:1 2 |38:2 1 |22:2 2 </relation>
<relation name="r_84" arity="2" nbTuples="4" semantics="soft">81:1 1 |62:1 2 |38:2 1 |17:2 2 </relation>
<relation name="r_85" arity="2" nbTuples="4" semantics="soft">68:1 1 |13:1 2 |51:2 1 |22:2 2 </relation>
<relation name="r_86" arity="2" nbTuples="4" semantics="soft">52:1 1 |42:1 2 |31:2 1 |54:2 2 </relation>
<relation name="r_87" arity="2" nbTuples="4" semantics="soft">37:1 1 |98:1 2 |96:2 1 |85:2 2 </relation>
<relation name="r_88" arity="2" nbTuples="4" semantics="soft">34:1 1 |73:1 2 |14:2 1 |42:2 2 </relation>
<relation name="r_89" arity="2" nbTuples="4" semantics="soft">33:1 1 |79:1 2 |56:2 1 |32:2 2 </relation>
<relation name="r_90" arity="2" nbTuples="4" semantics="soft">87:1 1 |55:1 2 |64:2 1 |19:2 2 </relation>
<relation name="r_91" arity="2" nbTuples="4" semantics="soft">13:1 1 |46:1 2 |49:2 1 |63:2 2 </relation>
<relation name="r_92" arity="2" nbTuples="4" semantics="soft">72:1 1 |47:1 2 |87:2 1 |22:2 2 </relation>
<relation name="r_93" arity="2" nbTuples="4" semantics="soft">51:1 1 |98:1 2 |62:2 1 |53:2 2 </relation>
<relation name="r_94" arity="2" nbTuples="4" semantics="soft">97:1 1 |93:1 2 |54:2 1 |16:2 2 </relation>
<relation name="r_95" arity="2" nbTuples="4" semantics="soft">34:1 1 |34:1 2 |28:2 1 |44:2 2 </relation>
<relation name="r_96" arity="2" nbTuples="4" semantics="soft">32:1 1 |86:1 2 |30:2 1 |89:2 2 </relation>
<relation name="r_97" arity="2" nbTuples="4" semantics="soft">77:1 1 |42:1 2 |12:2 1 |73:2 2 </relation>
<relation name="r_98" arity="2" nbTuples="4" semantics="soft">46:1 1 |24:1 2 |15:2 1 |45:2 2 </relation>
<relation name="r_99" arity="2" nbTuples="4" semantics="soft">51:1 1 |15:1 2 |43:2 1 |63:2 2 </relation>
<relation name="r_100" arity="2" nbTuples="4" semantics="soft">8:1 1 |86:1 2 |76:2 1 |27:2 2 </relation>
<relation name="r_101" arity="2" nbTuples="4" semantics="soft">45:1 1 |59:1 2 |74:2 1 |37:2 2 </relation>
<relation name="r_102" arity="2" nbTuples="4" semantics="soft">47:1 1 |28:1 2 |39:2 1 |75:2 2 </relation>
<relation name="r_103" arity="2" nbTuples="4" semantics="soft">8:1 1 |59:1 2 |51:2 1 |61:2 2 </relation>
<relation name="r_104" arity="2" nbTuples="4" semantics="soft">62:1 1 |49:1 2 |69:2 1 |16:2 2 </relation>
<relation name="r_105" arity="2" nbTuples="4" semantics="soft">31:1 1 |49:1 2 |53:2 1 |28:2 2 </relation>
<relation name="r_106" arity="2" nbTuples="4" semantics="soft">33:1 1 |11:1 2 |71:2 1 |87:2 2 </relation>
<relation name="r_107" arity="2" nbTuples="4" semantics="soft">74:1 1 |70:1 2 |4:2 1 |11:2 2 </relation>
<relation name="r_108" arity="2" nbTuples="4" semantics="soft">63:1 1 |94:1 2 |75:2 1 |97:2 2 </relation>
<relation name="r_109" arity="2" nbTuples="4" semantics="soft">55:1 1 |39:1 2 |87:2 1 |72:2 2 </relation>
<relation name="r_110" arity="2" nbTuples="4" semantics="soft">75:1 1 |27:1 2 |87:2 1 |50:2 2 </relation>
<relation name="r_111" arity="2" nbTuples="4" semantics="soft">36:1 1 |40:1 2 |13:2 1 |100:2 2 </relation>
<relation name="r_112" arity="2" nbTuples="4" semantics="soft">8:1 1 |18:1 2 |41:2 1 |72:2 2 </relation>
<relation name="r_113" arity="2" nbTuples="4" semantics="soft">83:1 1 |24:1 2 |98:2 1 |2:2 2 </relation>
<relation name="r_114" arity="2" nbTuples="4" semantics="soft">16:1 1 |78:1 2 |43:2 1 |64:2 2 </relation>
<relation name="r_115" arity="2" nbTuples="4" semantics="soft">5:1 1 |79:1 2 |92:2 1 |90:2 2 </relation>
<relation name="r_116" arity="2" nbTuples="4" semantics="soft">62:1 1 |34:1 2 |39:2 1 |10:2 2 </relation>
<relation name="r_117" arity="2" nbTuples="4" semantics="soft">58:1 1 |4:1 2 |34:2 1 |27:2 2 </relation>
<relation name="r_118" arity="2" nbTuples="4" semantics="soft">42:1 1 |26:1 2 |20:2 1 |46:2 2 </relation>
<relation name="r_119" arity="2" nbTuples="4" semantics="soft">98:1 1 |87:1 2 |23:2 1 |19:2 2 </relation>
<relation name="r_120" arity="2" nbTuples="4" semantics="soft">91:1 1 |77:1 2 |40:2 1 |96:2 2 </relation>
</relations>
<constraints nbConstraints="120">
<constraint name="c_1" arity="2" scope="24 19" reference="r_1"/>
<constraint name="c_2" arity="2" scope="24 12" reference="r_2"/>
<constraint name="c_3" arity="2" scope="24 2" reference="r_3"/>
<constraint name="c_4" arity="2" scope="24 1" reference="r_4"/>
<constraint name="c_5" arity="2" scope="24 20" reference="r_5"/>
<constraint name="c_6" arity="2" scope="24 0" reference="r_6"/>
<constraint name="c_7" arity="2" scope="23 18" reference="r_7"/>
<constraint name="c_8" arity="2" scope="23 3" reference="r_8"/>
<constraint name="c_9" arity="2" scope="23 24" reference="r_9"/>
<constraint name="c_10" arity="2" scope="23 22" reference="r_10"/>
<constraint name="c_11" arity="2" scope="23 7" reference="r_11"/>
<constraint name="c_12" arity="2" scope="23 6" reference="r_12"/>
<constraint name="c_13" arity="2" scope="22 20" reference="r_13"/>
<constraint name="c_14" arity="2" scope="22 0" reference="r_14"/>
<constraint name="c_15" arity="2" scope="22 17" reference="r_15"/>
<constraint name="c_16" arity="2" scope="21 1" reference="r_16"/>
<constraint name="c_17" arity="2" scope="21 3" reference="r_17"/>
<constraint name="c_18" arity="2" scope="21 24" reference="r_18"/>
<constraint name="c_19" arity="2" scope="21 23" reference="r_19"/>
<constraint name="c_20" arity="2" scope="21 0" reference="r_20"/>
<constraint name="c_21" arity="2" scope="21 22" reference="r_21"/>
<constraint name="c_22" arity="2" scope="21 13" reference="r_22"/>
<constraint name="c_23" arity="2" scope="21 7" reference="r_23"/>
<constraint name="c_24" arity="2" scope="20 23" reference="r_24"/>
<constraint name="c_25" arity="2" scope="20 15" reference="r_25"/>
<constraint name="c_26" arity="2" scope="20 11" reference="r_26"/>
<constraint name="c_27" arity="2" scope="18 9" reference="r_27"/>
<constraint name="c_28" arity="2" scope="18 4" reference="r_28"/>
<constraint name="c_29" arity="2" scope="18 14" reference="r_29"/>
<constraint name="c_30" arity="2" scope="18 20" reference="r_30"/>
<constraint name="c_31" arity="2" scope="18 12" reference="r_31"/>
<constraint name="c_32" arity="2" scope="18 15" reference="r_32"/>
<constraint name="c_33" arity="2" scope="18 3" reference="r_33"/>
<constraint name="c_34" arity="2" scope="17 5" reference="r_34"/>
<constraint name="c_35" arity="2" scope="17 6" reference="r_35"/>
<constraint name="c_36" arity="2" scope="17 1" reference="r_36"/>
<constraint name="c_37" arity="2" scope="16 1" reference="r_37"/>
<constraint name="c_38" arity="2" scope="16 12" reference="r_38"/>
<constraint name="c_39" arity="2" scope="16 19" reference="r_39"/>
<constraint name="c_40" arity="2" scope="16 20" reference="r_40"/>
<constraint name="c_41" arity="2" scope="16 15" reference="r_41"/>
<constraint name="c_42" arity="2" scope="16 21" reference="r_42"/>
<constraint name="c_43" arity="2" scope="15 1" reference="r_43"/>
<constraint name="c_44" arity="2" scope="15 24" reference="r_44"/>
<constraint name="c_45" arity="2" scope="15 23" reference="r_45"/>
<constraint name="c_46" arity="2" scope="15 22" reference="r_46"/>
<constraint name="c_47" arity="2" scope="15 17" reference="r_47"/>
<constraint name="c_48" arity="2" scope="15 14" reference="r_48"/>
<constraint name="c_49" arity="2" scope="14 7" reference="r_49"/>
<constraint name="c_50" arity="2" scope="14 0" reference="r_50"/>
<constraint name="c_51" arity="2" scope="14 16" reference="r_51"/>
<constraint name="c_52" arity="2" scope="14 17" reference="r_52"/>
<constraint name="c_53" arity="2" scope="14 5" reference="r_53"/>
<constraint name="c_54" arity="2" scope="13 22" reference="r_54"/>
<constraint name="c_55" arity="2" scope="13 8" reference="r_55"/>
<constraint name="c_56" arity="2" scope="13 11" reference="r_56"/>
<constraint name="c_57" arity="2" scope="13 9" reference="r_57"/>
<constraint name="c_58" arity="2" scope="13 19" reference="r_58"/>
<constraint name="c_59" arity="2" scope="12 14" reference="r_59"/>
<constraint name="c_60" arity="2" scope="12 7" reference="r_60"/>
<constraint name="c_61" arity="2" scope="12 1" reference="r_61"/>
<constraint name="c_62" arity="2" scope="12 11" reference="r_62"/>
<constraint name="c_63" arity="2" scope="12 2" reference="r_63"/>
<constraint name="c_64" arity="2" scope="11 10" reference="r_64"/>
<constraint name="c_65" arity="2" scope="11 7" reference="r_65"/>
<constraint name="c_66" arity="2" scope="11 18" reference="r_66"/>
<constraint name="c_67" arity="2" scope="11 14" reference="r_67"/>
<constraint name="c_68" arity="2" scope="11 24" reference="r_68"/>
<constraint name="c_69" arity="2" scope="11 6" reference="r_69"/>
<constraint name="c_70" arity="2" scope="10 1" reference="r_70"/>
<constraint name="c_71" arity="2" scope="10 15" reference="r_71"/>
<constraint name="c_72" arity="2" scope="10 12" reference="r_72"/>
<constraint name="c_73" arity="2" scope="10 22" reference="r_73"/>
<constraint name="c_74" arity="2" scope="10 7" reference="r_74"/>
<constraint name="c_75" arity="2" scope="10 23" reference="r_75"/>
<constraint name="c_76" arity="2" scope="9 19" reference="r_76"/>
<constraint name="c_77" arity="2" scope="9 24" reference="r_77"/>
<constraint name="c_78" arity="2" scope="9 1" reference="r_78"/>
<constraint name="c_79" arity="2" scope="9 5" reference="r_79"/>
<constraint name="c_80" arity="2" scope="8 6" reference="r_80"/>
<constraint name="c_81" arity="2" scope="8 22" reference="r_81"/>
<constraint name="c_82" arity="2" scope="8 14" reference="r_82"/>
<constraint name="c_83" arity="2" scope="8 18" reference="r_83"/>
<constraint name="c_84" arity="2" scope="8 21" reference="r_84"/>
<constraint name="c_85" arity="2" scope="7 0" reference="r_85"/>
<constraint name="c_86" arity="2" scope="7 24" reference="r_86"/>
<constraint name="c_87" arity="2" scope="7 22" reference="r_87"/>
<constraint name="c_88" arity="2" scope="7 15" reference="r_88"/>
<constraint name="c_89" arity="2" scope="7 9" reference="r_89"/>
<constraint name="c_90" arity="2" scope="6 10" reference="r_90"/>
<constraint name="c_91" arity="2" scope="6 7" reference="r_91"/>
<constraint name="c_92" arity="2" scope="6 9" reference="r_92"/>
<constraint name="c_93" arity="2" scope="5 10" reference="r_93"/>
<constraint name="c_94" arity="2" scope="5 22" reference="r_94"/>
<constraint name="c_95" arity="2" scope="5 13" reference="r_95"/>
<constraint name="c_96" arity="2" scope="5 24" reference="r_96"/>
<constraint name="c_97" arity="2" scope="4 15" reference="r_97"/>
<constraint name="c_98" arity="2" scope="4 23" reference="r_98"/>
<constraint name="c_99" arity="2" scope="4 14" reference="r_99"/>
<constraint name="c_100" arity="2" scope="4 24" reference="r_100"/>
<constraint name="c_101" arity="2" scope="4 21" reference="r_101"/>
<constraint name="c_102" arity="2" scope="3 5" reference="r_102"/>
<constraint name="c_103" arity="2" scope="3 17" reference="r_103"/>
<constraint name="c_104" arity="2" scope="3 20" reference="r_104"/>
<constraint name="c_105" arity="2" scope="3 16" reference="r_105"/>
<constraint name="c_106" arity="2" scope="3 7" reference="r_106"/>
<constraint name="c_107" arity="2" scope="2 23" reference="r_107"/>
<constraint name="c_108" arity="2" scope="2 22" reference="r_108"/>
<constraint name="c_109" arity="2" scope="2 6" reference="r_109"/>
<constraint name="c_110" arity="2" scope="1 3" reference="r_110"/>
<constraint name="c_111" arity="2" scope="1 0" reference="r_111"/>
<constraint name="c_112" arity="2" scope="1 5" reference="r_112"/>
<constraint name="c_113" arity="2" scope="1 2" reference="r_113"/>
<constraint name="c_114" arity="2" scope="1 7" reference="r_114"/>
<constraint name="c_115" arity="2" scope="1 6" reference="r_115"/>
<constraint name="c_116" arity="2" scope="0 18" reference="r_116"/>
<constraint name="c_117" arity="2" scope="0 20" reference="r_117"/>
<constraint name="c_118" arity="2" scope="0 8" reference="r_118"/>
<constraint name="c_119" arity="2" scope="0 13" reference="r_119"/>
<constraint name="c_120" arity="2" scope="0 3" reference="r_120"/>
</constraints>
</instance>
